42
12
0 12 14 15 16 17 21 27 29 30 31 33 34 36 38 39 40
1 13 15 16 17 19 20 22 23 24 29 31 33 35 37 38 40
2 12 13 17 18 19 20 21 22 26 27 29 30 31 32 38 40
3 12 14 16 17 21 23 25 27 29 35 39 41
4 13 16 20 21 22 23 25 26 27 28 30 32 38 39 40
5 13 17 23 25 26 29 30 31 40
6 12 13 15 17 20 23 25 26 33 34 36 38
7 13 14 15 21 23 27 31 40
8 17 18 21 23 24 34 36 37
9 12 15 16 19 20 24 27 30 31 33 36 40
10 16 23 27 29 34 37 38
11 25 27
